
Gurobi 7.5.1 (mac64, Python) logging started Sat Oct 14 20:17:13 2017

Academic license - for non-commercial use only
Warning: constraint name "capacity on leg 0" has a space
Warning: constraint name "capacity on leg 0" has a space
Warning: constraint name "capacity on leg 0" has a space
Optimize a model with 848 rows, 840 columns and 960 nonzeros
Coefficient statistics:
  Matrix range     [1e+00, 1e+01]
  Objective range  [1e+02, 1e+03]
  Bounds range     [0e+00, 0e+00]
  RHS range        [2e-01, 3e+05]
Presolve removed 848 rows and 840 columns
Presolve time: 0.01s
Presolve: All rows and columns removed
Iteration    Objective       Primal Inf.    Dual Inf.      Time
       0    2.0415150e+05   0.000000e+00   0.000000e+00      0s

Solved in 0 iterations and 0.02 seconds
Optimal objective  2.041514998e+05
Optimize a model with 848 rows, 840 columns and 960 nonzeros
Coefficient statistics:
  Matrix range     [1e+00, 1e+01]
  Objective range  [1e+02, 1e+03]
  Bounds range     [0e+00, 0e+00]
  RHS range        [2e-01, 4e+03]
Presolve removed 848 rows and 840 columns
Presolve time: 0.01s
Presolve: All rows and columns removed
Iteration    Objective       Primal Inf.    Dual Inf.      Time
       0    2.0065193e+05   0.000000e+00   0.000000e+00      0s

Solved in 0 iterations and 0.01 seconds
Optimal objective  2.006519260e+05
Optimize a model with 84008 rows, 84000 columns and 84120 nonzeros
Coefficient statistics:
  Matrix range     [1e+00, 1e+03]
  Objective range  [1e+02, 1e+03]
  Bounds range     [0e+00, 0e+00]
  RHS range        [2e-01, 4e+05]

Concurrent LP optimizer: dual simplex and barrier
Showing barrier log only...

Presolve removed 84008 rows and 84000 columns
Presolve time: 0.09s
Presolve: All rows and columns removed
Iteration    Objective       Primal Inf.    Dual Inf.      Time
       0    2.0846423e+07   0.000000e+00   0.000000e+00      0s

Solved with dual simplex
Solved in 0 iterations and 0.17 seconds
Optimal objective  2.084642283e+07
Optimize a model with 1688 rows, 1680 columns and 1800 nonzeros
Coefficient statistics:
  Matrix range     [1e+00, 2e+01]
  Objective range  [1e+02, 1e+03]
  Bounds range     [0e+00, 0e+00]
  RHS range        [2e-01, 5e+00]
Presolve removed 1688 rows and 1680 columns
Presolve time: 0.01s
Presolve: All rows and columns removed
Iteration    Objective       Primal Inf.    Dual Inf.      Time
       0    4.0164709e+05   0.000000e+00   0.000000e+00      0s

Solved in 0 iterations and 0.01 seconds
Optimal objective  4.016470948e+05
Optimize a model with 1688 rows, 1680 columns and 1800 nonzeros
Coefficient statistics:
  Matrix range     [1e+00, 2e+01]
  Objective range  [1e+02, 1e+03]
  Bounds range     [0e+00, 0e+00]
  RHS range        [2e-01, 5e+00]
Presolve removed 1688 rows and 1680 columns
Presolve time: 0.01s
Presolve: All rows and columns removed
Iteration    Objective       Primal Inf.    Dual Inf.      Time
       0    4.0014541e+05   0.000000e+00   0.000000e+00      0s

Solved in 0 iterations and 0.01 seconds
Optimal objective  4.001454107e+05
Optimize a model with 8 rows, 840 columns and 120 nonzeros
Coefficient statistics:
  Matrix range     [1e+01, 1e+01]
  Objective range  [1e+02, 1e+03]
  Bounds range     [0e+00, 0e+00]
  RHS range        [2e+00, 5e+00]
Presolve time: 0.01s

Solved in 0 iterations and 0.01 seconds
Infeasible or unbounded model
Warning: linear constraint 0 and linear constraint 8 have the same name "capacity_on_leg_0"
Warning: linear constraint 0 and linear constraint 8 have the same name "capacity_on_leg_0"
Optimize a model with 920 rows, 840 columns and 2040 nonzeros
Coefficient statistics:
  Matrix range     [1e+00, 1e+01]
  Objective range  [1e+02, 1e+03]
  Bounds range     [0e+00, 0e+00]
  RHS range        [2e-01, 5e+00]
Presolve removed 883 rows and 620 columns
Presolve time: 0.01s
Presolved: 37 rows, 220 columns, 310 nonzeros

Iteration    Objective       Primal Inf.    Dual Inf.      Time
       0    4.3575820e+04   4.700604e+01   0.000000e+00      0s
      29    3.0380639e+04   0.000000e+00   0.000000e+00      0s

Solved in 29 iterations and 0.02 seconds
Optimal objective  3.038063893e+04
Warning: linear constraint 0 and linear constraint 920 have the same name "capacity_on_leg_0at_0"
Warning: linear constraint 0 and linear constraint 920 have the same name "capacity_on_leg_0at_0"
Optimize a model with 920 rows, 840 columns and 2040 nonzeros
Coefficient statistics:
  Matrix range     [1e+00, 1e+01]
  Objective range  [1e+02, 1e+03]
  Bounds range     [0e+00, 0e+00]
  RHS range        [2e-01, 5e+00]
Presolve removed 884 rows and 624 columns
Presolve time: 0.01s
Presolved: 36 rows, 216 columns, 303 nonzeros

Iteration    Objective       Primal Inf.    Dual Inf.      Time
       0    4.2230349e+04   4.535517e+01   0.000000e+00      0s
      29    2.8655204e+04   0.000000e+00   0.000000e+00      0s

Solved in 29 iterations and 0.01 seconds
Optimal objective  2.865520400e+04

Gurobi 7.5.1 (mac64, Python) logging started Sun Oct 15 15:47:59 2017

Academic license - for non-commercial use only
Optimize a model with 28960 rows, 27720 columns and 72600 nonzeros
Coefficient statistics:
  Matrix range     [1e+00, 5e+01]
  Objective range  [1e+02, 1e+03]
  Bounds range     [0e+00, 0e+00]
  RHS range        [2e-01, 4e+00]

Concurrent LP optimizer: dual simplex and barrier
Showing barrier log only...

Presolve removed 28824 rows and 26201 columns
Presolve time: 0.10s
Presolved: 136 rows, 1519 columns, 2578 nonzeros

Ordering time: 0.00s

Barrier statistics:
 AA' NZ     : 1.430e+02
 Factor NZ  : 3.940e+02 (roughly 1 MByte of memory)
 Factor Ops : 1.632e+03 (less than 1 second per iteration)
 Threads    : 1

                  Objective                Residual
Iter       Primal          Dual         Primal    Dual     Compl     Time
   0   2.14882041e+06  8.15520450e+05  1.59e+02 2.95e+02  2.34e+03     0s
   1   2.60950965e+05  6.18873799e+05  9.50e+00 6.82e-13  2.72e+02     0s
   2   1.54608114e+05  2.67902978e+05  8.13e-01 5.68e-13  4.52e+01     0s
   3   1.52743374e+05  1.98655365e+05  8.76e-02 3.41e-13  1.55e+01     0s
   4   1.59568370e+05  1.71895796e+05  7.89e-03 2.84e-13  4.01e+00     0s
   5   1.61489617e+05  1.66429415e+05  1.57e-03 2.84e-13  1.60e+00     0s
   6   1.62167755e+05  1.63525885e+05  1.05e-04 3.41e-13  4.36e-01     0s
   7   1.62306871e+05  1.62643461e+05  1.26e-05 2.84e-13  1.08e-01     0s
   8   1.62362438e+05  1.62408753e+05  1.04e-06 3.41e-13  1.49e-02     0s
   9   1.62369036e+05  1.62374630e+05  2.48e-07 2.84e-13  1.80e-03     0s
  10   1.62371351e+05  1.62371500e+05  7.77e-16 2.84e-13  4.75e-05     0s
  11   1.62371378e+05  1.62371379e+05  2.22e-16 3.41e-13  5.51e-08     0s
  12   1.62371378e+05  1.62371378e+05  6.66e-16 5.12e-13  5.51e-11     0s

Barrier solved model in 12 iterations and 0.18 seconds
Optimal objective 1.62371378e+05


Solved with dual simplex
Solved in 184 iterations and 0.20 seconds
Optimal objective  1.623713784e+05

Gurobi 7.5.1 (mac64, Python) logging started Tue Oct 31 10:27:16 2017

Academic license - for non-commercial use only
Optimize a model with 3150 rows, 3150 columns and 3150 nonzeros
Coefficient statistics:
  Matrix range     [1e+00, 1e+00]
  Objective range  [1e+02, 1e+03]
  Bounds range     [0e+00, 0e+00]
  RHS range        [2e-01, 1e+00]
Presolve removed 3150 rows and 3150 columns
Presolve time: 0.02s
Presolve: All rows and columns removed
Iteration    Objective       Primal Inf.    Dual Inf.      Time
       0    8.4495622e+05   0.000000e+00   0.000000e+00      0s

Solved in 0 iterations and 0.02 seconds
Optimal objective  8.449562241e+05

Gurobi 7.5.1 (mac64, Python) logging started Tue Oct 31 14:35:52 2017

Academic license - for non-commercial use only
Optimize a model with 58740 rows, 58740 columns and 58740 nonzeros
Coefficient statistics:
  Matrix range     [1e+00, 1e+00]
  Objective range  [1e+02, 1e+03]
  Bounds range     [0e+00, 0e+00]
  RHS range        [2e-01, 1e+00]

Concurrent LP optimizer: dual simplex and barrier
Showing barrier log only...

Presolve removed 58740 rows and 58740 columns
Presolve time: 0.07s
Presolve: All rows and columns removed
Iteration    Objective       Primal Inf.    Dual Inf.      Time
       0    1.7047710e+07   0.000000e+00   0.000000e+00      0s

Solved with dual simplex
Solved in 0 iterations and 0.11 seconds
Optimal objective  1.704771030e+07
Optimize a model with 58740 rows, 58740 columns and 58740 nonzeros
Coefficient statistics:
  Matrix range     [1e+00, 1e+00]
  Objective range  [1e+02, 1e+03]
  Bounds range     [0e+00, 0e+00]
  RHS range        [2e-01, 1e+00]

Concurrent LP optimizer: dual simplex and barrier
Showing barrier log only...

Presolve removed 58740 rows and 58740 columns
Presolve time: 0.06s
Presolve: All rows and columns removed
Iteration    Objective       Primal Inf.    Dual Inf.      Time
       0    1.7047710e+07   0.000000e+00   0.000000e+00      0s

Solved with dual simplex
Solved in 0 iterations and 0.09 seconds
Optimal objective  1.704771030e+07
Optimize a model with 103320 rows, 103320 columns and 103320 nonzeros
Coefficient statistics:
  Matrix range     [1e+00, 1e+00]
  Objective range  [1e+02, 1e+03]
  Bounds range     [0e+00, 0e+00]
  RHS range        [2e-01, 1e+00]

Concurrent LP optimizer: dual simplex and barrier
Showing barrier log only...

Presolve removed 103320 rows and 103320 columns
Presolve time: 0.12s
Presolve: All rows and columns removed
Iteration    Objective       Primal Inf.    Dual Inf.      Time
       0    2.9387427e+07   0.000000e+00   0.000000e+00      0s

Solved with dual simplex
Solved in 0 iterations and 0.21 seconds
Optimal objective  2.938742663e+07

Gurobi 7.5.1 (mac64, Python) logging started Wed Nov  1 11:01:59 2017

Academic license - for non-commercial use only
Optimize a model with 1480 rows, 1365 columns and 3450 nonzeros
Coefficient statistics:
  Matrix range     [1e+00, 6e+00]
  Objective range  [1e+02, 1e+03]
  Bounds range     [0e+00, 0e+00]
  RHS range        [2e-01, 1e+02]
Presolve removed 1440 rows and 861 columns
Presolve time: 0.02s
Presolved: 40 rows, 504 columns, 750 nonzeros

Iteration    Objective       Primal Inf.    Dual Inf.      Time
       0    4.0804272e+05   1.991822e+02   0.000000e+00      0s
      88    3.3840933e+05   0.000000e+00   0.000000e+00      0s

Solved in 88 iterations and 0.03 seconds
Optimal objective  3.384093278e+05
Optimize a model with 8880 rows, 8190 columns and 20700 nonzeros
Coefficient statistics:
  Matrix range     [1e+00, 4e+01]
  Objective range  [1e+02, 1e+03]
  Bounds range     [0e+00, 0e+00]
  RHS range        [2e-01, 6e+02]
Presolve removed 8628 rows and 5075 columns
Presolve time: 0.02s
Presolved: 252 rows, 3115 columns, 4567 nonzeros

Iteration    Objective       Primal Inf.    Dual Inf.      Time
       0    2.3722587e+06   6.731939e+03   0.000000e+00      0s
     499    1.9806890e+06   0.000000e+00   0.000000e+00      0s

Solved in 499 iterations and 0.03 seconds
Optimal objective  1.980689049e+06
Optimize a model with 8880 rows, 8190 columns and 20700 nonzeros
Coefficient statistics:
  Matrix range     [1e+00, 4e+01]
  Objective range  [1e+02, 1e+03]
  Bounds range     [0e+00, 0e+00]
  RHS range        [2e-01, 6e+02]

Solved in 499 iterations and 0.01 seconds
Optimal objective  1.980689049e+06

Gurobi 7.5.1 (mac64, Python) logging started Wed Nov  1 17:03:28 2017

Academic license - for non-commercial use only
Optimize a model with 18400 rows, 16800 columns and 42000 nonzeros
Coefficient statistics:
  Matrix range     [1e+00, 3e+02]
  Objective range  [1e+02, 9e+02]
  Bounds range     [0e+00, 0e+00]
  RHS range        [4e-03, 6e+01]

Concurrent LP optimizer: dual simplex and barrier
Showing barrier log only...

Presolve removed 17798 rows and 10336 columns
Presolve time: 0.04s
Presolved: 602 rows, 6464 columns, 9335 nonzeros

Ordering time: 0.00s

Barrier statistics:
 AA' NZ     : 5.470e+02
 Factor NZ  : 1.477e+03 (roughly 3 MBytes of memory)
 Factor Ops : 4.625e+03 (less than 1 second per iteration)
 Threads    : 1

                  Objective                Residual
Iter       Primal          Dual         Primal    Dual     Compl     Time
   0   2.10621332e+05  1.33373422e+05  2.58e+01 1.07e-14  4.60e+01     0s
   1   7.44325860e+04  1.19412778e+05  5.88e-01 4.26e-14  5.01e+00     0s
   2   7.31793835e+04  8.02222370e+04  8.85e-02 3.41e-13  5.88e-01     0s
   3   7.49059947e+04  7.76759507e+04  2.69e-02 2.27e-13  2.23e-01     0s

Barrier performed 3 iterations in 0.07 seconds
Barrier solve interrupted - model solved by another algorithm


Solved with dual simplex
Solved in 1133 iterations and 0.08 seconds
Optimal objective  7.610991856e+04

Gurobi 7.5.1 (mac64, Python) logging started Wed Nov  1 23:20:49 2017

Academic license - for non-commercial use only
Optimize a model with 17000 rows, 15000 columns and 36000 nonzeros
Coefficient statistics:
  Matrix range     [1e+00, 6e+02]
  Objective range  [1e+02, 9e+02]
  Bounds range     [0e+00, 0e+00]
  RHS range        [1e-02, 1e+02]

Concurrent LP optimizer: dual simplex and barrier
Showing barrier log only...

Presolve removed 15629 rows and 4807 columns
Presolve time: 0.03s
Presolved: 1371 rows, 10193 columns, 14213 nonzeros

Ordering time: 0.00s

Barrier statistics:
 AA' NZ     : 6.700e+02
 Factor NZ  : 2.372e+03 (roughly 5 MBytes of memory)
 Factor Ops : 5.036e+03 (less than 1 second per iteration)
 Threads    : 1

                  Objective                Residual
Iter       Primal          Dual         Primal    Dual     Compl     Time
   0   6.30017406e+05  6.35238935e+05  5.25e+01 1.07e-14  1.97e+02     0s
   1   1.24408247e+05  5.01286385e+05  3.14e-01 4.62e-14  2.20e+01     0s
   2   1.25987432e+05  2.06053823e+05  0.00e+00 2.84e-14  3.69e+00     0s
   3   1.42716049e+05  1.58593440e+05  0.00e+00 1.42e-14  7.30e-01     0s

Barrier performed 3 iterations in 0.07 seconds
Barrier solve interrupted - model solved by another algorithm


Solved with dual simplex
Solved in 2107 iterations and 0.07 seconds
Optimal objective  1.507285637e+05
Optimize a model with 17000 rows, 15000 columns and 34500 nonzeros
Coefficient statistics:
  Matrix range     [1e+00, 5e+02]
  Objective range  [2e+02, 9e+02]
  Bounds range     [0e+00, 0e+00]
  RHS range        [1e-02, 8e+01]

Concurrent LP optimizer: dual simplex and barrier
Showing barrier log only...

Presolve removed 15731 rows and 5418 columns
Presolve time: 0.03s
Presolved: 1269 rows, 9582 columns, 12399 nonzeros

Ordering time: 0.00s

Barrier statistics:
 AA' NZ     : 3.130e+02
 Factor NZ  : 1.582e+03 (roughly 4 MBytes of memory)
 Factor Ops : 2.208e+03 (less than 1 second per iteration)
 Threads    : 1

                  Objective                Residual
Iter       Primal          Dual         Primal    Dual     Compl     Time
   0   6.16367719e+05  6.40136185e+05  3.31e+01 1.07e-14  1.62e+02     0s
   1   1.58105380e+05  4.93942783e+05  1.46e-01 4.62e-14  1.90e+01     0s
   2   1.70246153e+05  2.34941434e+05  0.00e+00 4.97e-14  3.17e+00     0s
   3   1.86883829e+05  1.96929722e+05  0.00e+00 1.42e-14  4.92e-01     0s

Barrier performed 3 iterations in 0.07 seconds
Barrier solve interrupted - model solved by another algorithm


Solved with dual simplex
Solved in 1594 iterations and 0.07 seconds
Optimal objective  1.917579322e+05

Gurobi 7.5.1 (mac64, Python) logging started Mon Nov  6 11:12:17 2017

Academic license - for non-commercial use only
Optimize a model with 34500 rows, 31500 columns and 76500 nonzeros
Coefficient statistics:
  Matrix range     [1e+00, 5e+02]
  Objective range  [2e+02, 1e+03]
  Bounds range     [0e+00, 0e+00]
  RHS range        [5e-03, 1e+02]

Concurrent LP optimizer: dual simplex and barrier
Showing barrier log only...

Presolve removed 32630 rows and 11840 columns
Presolve time: 0.07s
Presolved: 1870 rows, 19660 columns, 27841 nonzeros

Ordering time: 0.00s

Barrier statistics:
 AA' NZ     : 9.090e+02
 Factor NZ  : 3.669e+03 (roughly 9 MBytes of memory)
 Factor Ops : 9.631e+03 (less than 1 second per iteration)
 Threads    : 1

                  Objective                Residual
Iter       Primal          Dual         Primal    Dual     Compl     Time
   0   9.21512690e+05  7.60382355e+05  6.15e+01 1.24e-14  1.44e+02     0s
   1   1.76194000e+05  6.34805859e+05  5.00e-01 6.04e-14  1.40e+01     0s
   2   1.77201019e+05  2.58945155e+05  0.00e+00 4.48e-13  1.99e+00     0s
   3   1.91799702e+05  2.21299708e+05  0.00e+00 1.35e-13  7.17e-01     0s
   4   2.01020318e+05  2.10369773e+05  0.00e+00 4.26e-14  2.27e-01     0s
   5   2.03268425e+05  2.06925136e+05  0.00e+00 1.42e-14  8.88e-02     0s
   6   2.04108933e+05  2.05006964e+05  0.00e+00 1.42e-14  2.18e-02     0s

Barrier performed 6 iterations in 0.14 seconds
Barrier solve interrupted - model solved by another algorithm


Solved with dual simplex
Solved in 3204 iterations and 0.14 seconds
Optimal objective  2.044371030e+05
Optimize a model with 12600 rows, 12600 columns and 12600 nonzeros
Coefficient statistics:
  Matrix range     [1e+00, 1e+00]
  Objective range  [2e+02, 1e+03]
  Bounds range     [0e+00, 0e+00]
  RHS range        [5e-03, 3e-02]
Presolve removed 12600 rows and 12600 columns
Presolve time: 0.02s
Presolve: All rows and columns removed
Iteration    Objective       Primal Inf.    Dual Inf.      Time
       0    9.9793566e+04   0.000000e+00   0.000000e+00      0s

Solved in 0 iterations and 0.03 seconds
Optimal objective  9.979356603e+04

Gurobi 7.5.1 (mac64, Python) logging started Mon Nov  6 17:34:12 2017

Academic license - for non-commercial use only
Optimize a model with 1000 rows, 900 columns and 2160 nonzeros
Coefficient statistics:
  Matrix range     [1e+00, 2e+01]
  Objective range  [2e+02, 1e+03]
  Bounds range     [0e+00, 0e+00]
  RHS range        [7e-03, 4e+00]
Presolve removed 936 rows and 327 columns
Presolve time: 0.01s
Presolved: 64 rows, 573 columns, 807 nonzeros

Iteration    Objective       Primal Inf.    Dual Inf.      Time
       0    1.1380579e+04   1.610288e+01   0.000000e+00      0s
      97    8.4107520e+03   0.000000e+00   0.000000e+00      0s

Solved in 97 iterations and 0.03 seconds
Optimal objective  8.410751970e+03

Gurobi 7.5.1 (mac64, Python) logging started Mon Nov  6 17:46:18 2017

Academic license - for non-commercial use only
Optimize a model with 1000 rows, 900 columns and 2040 nonzeros
Coefficient statistics:
  Matrix range     [1e+00, 2e+01]
  Objective range  [2e+02, 1e+03]
  Bounds range     [0e+00, 0e+00]
  RHS range        [7e-03, 3e+00]
Presolve removed 938 rows and 348 columns
Presolve time: 0.01s
Presolved: 62 rows, 552 columns, 696 nonzeros

Iteration    Objective       Primal Inf.    Dual Inf.      Time
       0    1.0486000e+04   1.349759e+01   0.000000e+00      0s
      79    7.8796313e+03   0.000000e+00   0.000000e+00      0s

Solved in 79 iterations and 0.03 seconds
Optimal objective  7.879631276e+03
